 2 3 13
 1 5 16
 1 4 12
 3 6 7
 2 6 23
 4 5 24
 4 8 12
 7 10 19
 10 11 17
 8 9 20
 9 12 18
 3 7 11
 1 16 18
 15 17 22
 14 16 21
 2 13 15
 9 14 18
 11 13 17
 8 20 24
 10 19 22
 15 22 23
 14 20 21
 5 21 24
 6 19 23
